120
150
96
54
92
66
38
46
96
82
20
91
38
54
96
24
99
23
73
38
77
54
64
62
82
69
68
59
99
50
27
81
21
91
50
60
37
63
88
24
67
39
96
54
30
99
21
77
50
46
50
68
90
22
29
77
32
38
27
90
73
54
77
42
23
53
97
43
30
79
33
28
87
69
46
52
62
50
27
33
99
56
93
36
52
33
36
69
92
87
39
58
42
31
60
32
33
66
57
45
68
97
66
30
24
39
97
22
73
89
29
81
77
53
23
61
69
53
82
68
63
87
